
  12    4
  10   10   10   10

   0   0   0   0   0   2 2 5 
   7  10  10  10  10   2 4 3 
   7  10  10  10  10   2 7 6 
   4  10  10  10  10   2 8 6 
   5  10  10  10  10   2 11 7 
   3  10  10  10  10   3 11 10 9 
  10  10  10  10  10   2 10 8 
   9  10  10  10  10   1 9 
   2  10  10  10  10   1 12
   9  10  10  10  10   1 12
   6  10  10  10  10   1 12
   0   0   0   0   0   0 
